<instance format="XCSP3" type="CSP">
  <variables>
    <array id="x" size="[2][4]"> 0..7 </array>
  </variables>
  <constraints>
    <allDifferent> x[][] </allDifferent>
    <group>
      <intension> eq(%0,add(%1,%2)) </intension>
      <args> x[1][0] x[0][0] 2 </args>
      <args> x[1][1] x[0][1] 3 </args>
      <args> x[1][2] x[0][2] 4 </args>
      <args> x[1][3] x[0][3] 5 </args>
    </group>
  </constraints>
</instance>
